c User generated cnf file
p cnf 12 20
5 -6 3 0 
8 11 -8 0 
7 4 -5 0 
3 5 -4 0 
11 8 -12 0 
3 -12 10 0 
3 -3 1 0 
2 -1 5 0 
8 9 -7 0 
10 12 -9 0 
8 -1 3 0 
12 8 -10 0 
10 12 -5 0 
11 5 -10 0 
8 -12 4 0 
4 5 -6 0 
6 -11 10 0 
9 -1 7 0 
9 12 -3 0 
9 8 -9 0 
